15201 43174
63399 29255
8757 38901
27616 13108
61681 61148
17509 31916
51359 21764
13224 40377
55703 12854
43623 52754
64587 63334
55727 13994
34411 37935
37997 57789
3441 52377
11380 32020
12343 14831
24151 49828
52675 32670
52596 22044
38917 2482
34616 1714
16642 24604
45592 52900
55554 26158
5421 43920
37601 18657
18859 43348
10947 7530
48773 14426
42927 22139
38296 57490
4808 2639
59288 15541
36853 28156
58836 39363
65250 55193
26059 34776
52900 21592
8681 17199
5949 45839
45096 64519
9210 39170
50900 51632
56316 65124
28486 20325
35874 22178
28835 18639
5264 35699
34754 46857
13585 51050
36244 12888
24951 39456
49452 7345
15993 40535
3307 12982
48006 20770
21085 34329
49302 51913
47840 34924
28507 63160
